n_res = 4;
rc = [ 0, 0, 0, 0 ];
n_tasks = 30;
d = [ 1, 5, 1, 9, 4, 6, 3, 8, 10, 4, 6, 10, 9, 5, 1, 10, 2, 4, 4, 7, 3, 8, 9, 7, 7, 2, 9, 6, 5, 5 ];
rr = [| 0, 0, 0, 0, 0, 0, 0, 0, 0, 0, 0, 0, 0, 0, 0, 0, 0, 0, 0, 0, 0, 0, 0, 0, 0, 0, 0, 0, 0, 0
      | 0, 0, 0, 0, 0, 0, 0, 0, 0, 0, 0, 0, 0, 0, 0, 0, 0, 0, 0, 0, 0, 0, 0, 0, 0, 0, 0, 0, 0, 0
      | 0, 0, 0, 0, 0, 0, 0, 0, 0, 0, 0, 0, 0, 0, 0, 0, 0, 0, 0, 0, 0, 0, 0, 0, 0, 0, 0, 0, 0, 0
      | 0, 0, 0, 0, 0, 0, 0, 0, 0, 0, 0, 0, 0, 0, 0, 0, 0, 0, 0, 0, 0, 0, 0, 0, 0, 0, 0, 0, 0, 0 |];
suc = [ { 7, 9, 11 },
       { 4, 5 },
       { 6, 7, 14 },
       { 10, 12 },
       { 10, 15, 26 },
       { 11, 15, 18 },
       { 8 },
       { 13, 20, 26 },
       { 17 },
       { 14, 22, 24 },
       { 21 },
       { 16, 21, 28 },
       { 15, 24, 29 },
       { 27 },
       { 27 },
       { 18, 22, 23 },
       { 19, 23 },
       { 20, 25 },
       { 24, 25, 30 },
       { 30 },
       { 22 },
       { 25 },
       { 26, 29 },
       { 27 },
       { 29 },
       { 30 },
       { 28 },
       {  },
       {  },
       {  } ];
